10
1 3
2 5
3 9
4 10
5 7
6 2
7 4
8 9
9 5
25
0 1 30
1 0 30
0 2 2
2 0 2
0 3 5
3 0 5
0 4 11
4 0 11
0 5 11
5 0 11
0 6 50
6 0 50
0 7 10
7 0 10
0 8 67
8 0 67
0 9 75
9 0 75
1 7 23
1 9 5
4 7 93
5 7 35
6 7 29
6 9 100
8 9 44
